unsat
(:cnf-encoding-aux-vars   169
 :eliminated-applications 4
 :eliminated-vars         116
 :max-memory              19.31
 :memory                  18.61
 :nlsat-conflicts         5
 :nlsat-decisions         7
 :nlsat-learned-added     4
 :nlsat-propagations      25
 :num-allocs              27179
 :rlimit-count            108299
 :time                    0.03
 :total-time              0.04)
